(set-info :smt-lib-version 2.6)
(set-logic QF_LIA)
(set-info :source |
Alberto Griggio

|)
(set-info :category "crafted")
(set-info :status unsat)
(declare-fun v0 () Int)
(declare-fun v1 () Int)
(declare-fun v2 () Int)
(declare-fun v3 () Int)
(declare-fun v4 () Int)
(declare-fun v5 () Int)
(declare-fun s_0 () Int)
(declare-fun o_0 () Int)
(declare-fun s_1 () Int)
(declare-fun s_2 () Int)
(declare-fun o_1 () Int)
(declare-fun s_3 () Int)
(declare-fun s_4 () Int)
(declare-fun o_2 () Int)
(declare-fun o_3 () Int)
(declare-fun o_4 () Int)
(declare-fun s_5 () Int)
(declare-fun o_5 () Int)
(declare-fun s_6 () Int)
(declare-fun o_6 () Int)
(declare-fun s_7 () Int)
(declare-fun o_7 () Int)
(declare-fun s_8 () Int)
(declare-fun o_8 () Int)
(declare-fun s_9 () Int)
(declare-fun o_9 () Int)
(assert (let ((?v_13 (* v1 2)) (?v_19 (* v2 4)) (?v_18 (* v3 8)) (?v_42 (* v4 16)) (?v_41 (* v5 32)) (?v_34 (* v3 2)) (?v_27 (* v5 2)) (?v_0 (+ (* s_0 (- 32768)) v1)) (?v_14 (* s_0 (- 65536)))) (let ((?v_2 (+ (+ ?v_13 v0) ?v_14)) (?v_15 (* o_0 (- 65536)))) (let ((?v_1 (+ ?v_2 ?v_15)) (?v_5 (* s_1 (- 16384)))) (let ((?v_3 (+ ?v_5 v2)) (?v_4 (+ (* s_2 (- 8192)) v3)) (?v_7 (+ (+ (+ ?v_34 v2) (* s_2 (- 16384))) ?v_5))) (let ((?v_6 (+ (* o_1 (- 16384)) ?v_7)) (?v_10 (* s_3 (- 4096)))) (let ((?v_8 (+ ?v_10 v4)) (?v_9 (+ (* s_4 (- 2048)) v5)) (?v_12 (+ (+ (+ v4 ?v_27) (* s_4 (- 4096))) ?v_10))) (let ((?v_11 (+ (* o_2 (- 4096)) ?v_12)) (?v_20 (* s_2 (- 65536))) (?v_21 (* s_1 (- 65536))) (?v_22 (* o_1 (- 65536)))) (let ((?v_17 (+ (+ (+ (+ (+ (+ (+ (+ ?v_19 ?v_18) ?v_13) v0) ?v_20) ?v_21) ?v_22) ?v_14) ?v_15)) (?v_23 (* o_3 (- 65536)))) (let ((?v_16 (+ ?v_17 ?v_23)) (?v_25 (+ (+ (+ (+ (+ (+ (+ (+ (+ (+ (+ (+ (+ (+ ?v_42 ?v_41) ?v_18) ?v_19) ?v_13) v0) ?v_20) ?v_21) ?v_22) ?v_14) ?v_15) ?v_23) (* s_4 (- 65536))) (* s_3 (- 65536))) (* o_2 (- 65536))))) (let ((?v_24 (+ (* o_4 (- 65536)) ?v_25)) (?v_26 (+ (* s_5 (- 32768)) v5)) (?v_29 (+ (+ (* s_5 (- 65536)) ?v_27) v4))) (let ((?v_28 (+ ?v_29 (* o_5 (- 65536))))) (let ((?v_30 (+ (* s_6 (- 32768)) ?v_28)) (?v_32 (+ (+ (+ (+ (+ (* s_5 (- 131072)) (* v5 4)) (* v4 2)) (* o_5 (- 131072))) (* s_6 (- 65536))) v3))) (let ((?v_31 (+ ?v_32 (* o_6 (- 65536))))) (let ((?v_33 (+ (* s_7 (- 32768)) ?v_31)) (?v_36 (+ (+ (+ (+ (+ (+ (+ (+ (* s_5 (- 262144)) (* v5 8)) (* v4 4)) (* o_5 (- 262144))) (* s_6 (- 131072))) ?v_34) (* o_6 (- 131072))) (* s_7 (- 65536))) v2))) (let ((?v_35 (+ ?v_36 (* o_7 (- 65536))))) (let ((?v_37 (+ (* s_8 (- 32768)) ?v_35)) (?v_39 (+ (+ (+ (+ (+ (+ (+ (+ (+ (+ (+ (* s_5 (- 524288)) (* v5 16)) (* v4 8)) (* o_5 (- 524288))) (* s_6 (- 262144))) (* v3 4)) (* o_6 (- 262144))) (* s_7 (- 131072))) (* v2 2)) (* o_7 (- 131072))) (* s_8 (- 65536))) v1))) (let ((?v_38 (+ ?v_39 (* o_8 (- 65536))))) (let ((?v_40 (+ (* s_9 (- 32768)) ?v_38)) (?v_44 (+ (+ (+ (+ (+ (+ (+ (+ (+ (+ (+ (+ (+ (+ (* s_5 (- 1048576)) ?v_41) ?v_42) (* o_5 (- 1048576))) (* s_6 (- 524288))) ?v_18) (* o_6 (- 524288))) (* s_7 (- 262144))) ?v_19) (* o_7 (- 262144))) (* s_8 (- 131072))) ?v_13) (* o_8 (- 131072))) (* s_9 (- 65536))) v0))) (let ((?v_43 (+ (* o_9 (- 65536)) ?v_44))) (and (and (and (and (and (and (and (and (and (and (and (and (and (and (and (and (and (and (and (and (and (and (and (and (and (and (and (and (and (and (and (and (and (and (and (and (and (and (and (and (and (and (and (and (and (and (and (and (and (and (and (and (and (and (and (and (and (and (and (and (and (and (and (and (and (and (and (<= 0 v0) (not (<= 65536 v0))) (and (<= 0 v1) (not (<= 65536 v1)))) (and (<= 0 v2) (not (<= 65536 v2)))) (and (<= 0 v3) (not (<= 65536 v3)))) (and (<= 0 v4) (not (<= 65536 v4)))) (and (<= 0 v5) (not (<= 65536 v5)))) (and (not (<= 2 s_0)) (<= 0 s_0))) (and (<= 0 ?v_0) (not (<= 32768 ?v_0)))) (= (<= 1 s_0) (not (<= v1 32768)))) (and (<= 0 o_0) (<= o_0 1))) (and (<= 0 ?v_1) (not (<= 65536 ?v_1)))) (= (not (<= ?v_2 65536)) (= o_0 1))) (and (not (<= 4 s_1)) (<= 0 s_1))) (and (<= 0 ?v_3) (not (<= 16384 ?v_3)))) (= (<= 1 s_1) (not (<= v2 16384)))) (and (not (<= 8 s_2)) (<= 0 s_2))) (and (<= 0 ?v_4) (not (<= 8192 ?v_4)))) (= (<= 1 s_2) (not (<= v3 8192)))) (and (<= 0 o_1) (<= o_1 1))) (and (<= 0 ?v_6) (not (<= 16384 ?v_6)))) (= (not (<= ?v_7 16384)) (= o_1 1))) (and (not (<= 16 s_3)) (<= 0 s_3))) (and (<= 0 ?v_8) (not (<= 4096 ?v_8)))) (= (<= 1 s_3) (not (<= v4 4096)))) (and (not (<= 32 s_4)) (<= 0 s_4))) (and (<= 0 ?v_9) (not (<= 2048 ?v_9)))) (= (<= 1 s_4) (not (<= v5 2048)))) (and (<= 0 o_2) (<= o_2 1))) (and (<= 0 ?v_11) (not (<= 4096 ?v_11)))) (= (not (<= ?v_12 4096)) (= o_2 1))) (and (<= 0 o_3) (<= o_3 1))) (and (<= 0 ?v_16) (not (<= 65536 ?v_16)))) (= (not (<= ?v_17 65536)) (= o_3 1))) (and (<= 0 o_4) (<= o_4 1))) (and (<= 0 ?v_24) (not (<= 65536 ?v_24)))) (= (not (<= ?v_25 65536)) (= o_4 1))) (and (not (<= 2 s_5)) (<= 0 s_5))) (and (<= 0 ?v_26) (not (<= 32768 ?v_26)))) (= (<= 1 s_5) (not (<= v5 32768)))) (and (<= 0 o_5) (<= o_5 1))) (and (<= 0 ?v_28) (not (<= 65536 ?v_28)))) (= (not (<= ?v_29 65536)) (= o_5 1))) (and (not (<= 2 s_6)) (<= 0 s_6))) (and (<= 0 ?v_30) (not (<= 32768 ?v_30)))) (= (<= 1 s_6) (not (<= ?v_28 32768)))) (and (<= 0 o_6) (<= o_6 1))) (and (<= 0 ?v_31) (not (<= 65536 ?v_31)))) (= (not (<= ?v_32 65536)) (= o_6 1))) (and (not (<= 2 s_7)) (<= 0 s_7))) (and (<= 0 ?v_33) (not (<= 32768 ?v_33)))) (= (<= 1 s_7) (not (<= ?v_31 32768)))) (and (<= 0 o_7) (<= o_7 1))) (and (<= 0 ?v_35) (not (<= 65536 ?v_35)))) (= (not (<= ?v_36 65536)) (= o_7 1))) (and (not (<= 2 s_8)) (<= 0 s_8))) (and (<= 0 ?v_37) (not (<= 32768 ?v_37)))) (= (<= 1 s_8) (not (<= ?v_35 32768)))) (and (<= 0 o_8) (<= o_8 1))) (and (<= 0 ?v_38) (not (<= 65536 ?v_38)))) (= (not (<= ?v_39 65536)) (= o_8 1))) (and (not (<= 2 s_9)) (<= 0 s_9))) (and (<= 0 ?v_40) (not (<= 32768 ?v_40)))) (= (<= 1 s_9) (not (<= ?v_38 32768)))) (and (<= 0 o_9) (<= o_9 1))) (and (<= 0 ?v_43) (not (<= 65536 ?v_43)))) (= (not (<= ?v_44 65536)) (= o_9 1))) (not (= (+ (+ (+ (+ (+ (+ (+ (+ (+ (+ (+ (+ (+ (+ (+ (+ (+ (+ (+ (* o_5 16) (* s_5 16)) (* s_6 8)) (* o_6 8)) (* s_7 4)) (* o_7 4)) (* s_8 2)) (* o_8 2)) s_9) o_9) (- s_2)) (- s_1)) (- o_1)) (- s_0)) (- o_0)) (- o_3)) (- s_4)) (- s_3)) (- o_2)) (- o_4)) 0)))))))))))))))))))))))
(check-sat)
(exit)
